p cnf 965 2478
51 -2 -698 0
-51 2 0
-51 698 0
52 -51 -699 0
-52 51 0
-52 699 0
53 -700 -4 0
-53 700 0
-53 4 0
54 -53 -6 0
-54 53 0
-54 6 0
55 -701 -702 0
-55 701 0
-55 702 0
56 -703 -7 0
-56 703 0
-56 7 0
57 -56 -9 0
-57 56 0
-57 9 0
58 -704 -55 0
-58 704 0
-58 55 0
59 -10 -8 0
-59 10 0
-59 8 0
60 -59 -4 0
-60 59 0
-60 4 0
61 -705 -58 0
-61 705 0
-61 58 0
62 -706 -707 0
-62 706 0
-62 707 0
63 -62 -12 0
-63 62 0
-63 12 0
64 -708 -61 0
-64 708 0
-64 61 0
65 -13 -9 0
-65 13 0
-65 9 0
66 -65 -709 0
-66 65 0
-66 709 0
67 -710 -64 0
-67 710 0
-67 64 0
68 -711 -15 0
-68 711 0
-68 15 0
69 -68 -5 0
-69 68 0
-69 5 0
70 -712 -67 0
-70 712 0
-70 67 0
71 -8 -1 0
-71 8 0
-71 1 0
72 -71 -713 0
-72 71 0
-72 713 0
73 -714 -70 0
-73 714 0
-73 70 0
74 -19 -18 0
-74 19 0
-74 18 0
75 -74 -715 0
-75 74 0
-75 715 0
76 -716 -73 0
-76 716 0
-76 73 0
77 -717 -718 0
-77 717 0
-77 718 0
78 -77 -719 0
-78 77 0
-78 719 0
79 -720 -76 0
-79 720 0
-79 76 0
80 -24 -721 0
-80 24 0
-80 721 0
81 -80 -25 0
-81 80 0
-81 25 0
82 -722 -79 0
-82 722 0
-82 79 0
83 -26 -723 0
-83 26 0
-83 723 0
84 -83 -713 0
-84 83 0
-84 713 0
85 -724 -82 0
-85 724 0
-85 82 0
86 -725 -726 0
-86 725 0
-86 726 0
87 -86 -16 0
-87 86 0
-87 16 0
88 -727 -85 0
-88 727 0
-88 85 0
89 -728 -16 0
-89 728 0
-89 16 0
90 -89 -29 0
-90 89 0
-90 29 0
91 -729 -88 0
-91 729 0
-91 88 0
92 -30 -15 0
-92 30 0
-92 15 0
93 -92 -31 0
-93 92 0
-93 31 0
94 -730 -91 0
-94 730 0
-94 91 0
95 -32 -731 0
-95 32 0
-95 731 0
96 -95 -732 0
-96 95 0
-96 732 0
97 -733 -94 0
-97 733 0
-97 94 0
98 -34 -7 0
-98 34 0
-98 7 0
99 -98 -8 0
-99 98 0
-99 8 0
100 -734 -97 0
-100 734 0
-100 97 0
101 -24 -707 0
-101 24 0
-101 707 0
102 -101 -735 0
-102 101 0
-102 735 0
103 -736 -100 0
-103 736 0
-103 100 0
104 -737 -7 0
-104 737 0
-104 7 0
105 -104 -14 0
-105 104 0
-105 14 0
106 -738 -103 0
-106 738 0
-106 103 0
107 -26 -19 0
-107 26 0
-107 19 0
108 -107 -739 0
-108 107 0
-108 739 0
109 -740 -106 0
-109 740 0
-109 106 0
110 -38 -4 0
-110 38 0
-110 4 0
111 -110 -741 0
-111 110 0
-111 741 0
112 -742 -109 0
-112 742 0
-112 109 0
113 -743 -725 0
-113 743 0
-113 725 0
114 -113 -33 0
-114 113 0
-114 33 0
115 -744 -112 0
-115 744 0
-115 112 0
116 -34 -2 0
-116 34 0
-116 2 0
117 -116 -16 0
-117 116 0
-117 16 0
118 -745 -115 0
-118 745 0
-118 115 0
119 -19 -746 0
-119 19 0
-119 746 0
120 -119 -747 0
-120 119 0
-120 747 0
121 -748 -118 0
-121 748 0
-121 118 0
122 -40 -735 0
-122 40 0
-122 735 0
123 -122 -33 0
-123 122 0
-123 33 0
124 -749 -121 0
-124 749 0
-124 121 0
125 -725 -750 0
-125 725 0
-125 750 0
126 -125 -751 0
-126 125 0
-126 751 0
127 -752 -124 0
-127 752 0
-127 124 0
128 -42 -41 0
-128 42 0
-128 41 0
129 -128 -14 0
-129 128 0
-129 14 0
130 -753 -127 0
-130 753 0
-130 127 0
131 -735 -27 0
-131 735 0
-131 27 0
132 -131 -747 0
-132 131 0
-132 747 0
133 -754 -130 0
-133 754 0
-133 130 0
134 -28 -706 0
-134 28 0
-134 706 0
135 -134 -709 0
-135 134 0
-135 709 0
136 -755 -133 0
-136 755 0
-136 133 0
137 -756 -17 0
-137 756 0
-137 17 0
138 -137 -732 0
-138 137 0
-138 732 0
139 -757 -136 0
-139 757 0
-139 136 0
140 -43 -16 0
-140 43 0
-140 16 0
141 -140 -4 0
-141 140 0
-141 4 0
142 -758 -139 0
-142 758 0
-142 139 0
143 -747 -707 0
-143 747 0
-143 707 0
144 -143 -737 0
-144 143 0
-144 737 0
145 -759 -142 0
-145 759 0
-145 142 0
146 -760 -21 0
-146 760 0
-146 21 0
147 -146 -16 0
-147 146 0
-147 16 0
148 -761 -145 0
-148 761 0
-148 145 0
149 -35 -762 0
-149 35 0
-149 762 0
150 -149 -39 0
-150 149 0
-150 39 0
151 -763 -148 0
-151 763 0
-151 148 0
152 -34 -764 0
-152 34 0
-152 764 0
153 -152 -746 0
-153 152 0
-153 746 0
154 -765 -151 0
-154 765 0
-154 151 0
155 -756 -735 0
-155 756 0
-155 735 0
156 -155 -699 0
-156 155 0
-156 699 0
157 -766 -154 0
-157 766 0
-157 154 0
158 -37 -767 0
-158 37 0
-158 767 0
159 -158 -9 0
-159 158 0
-159 9 0
160 -768 -157 0
-160 768 0
-160 157 0
161 -38 -33 0
-161 38 0
-161 33 0
162 -161 -741 0
-162 161 0
-162 741 0
163 -769 -160 0
-163 769 0
-163 160 0
164 -43 -31 0
-164 43 0
-164 31 0
165 -164 -699 0
-165 164 0
-165 699 0
166 -770 -163 0
-166 770 0
-166 163 0
167 -719 -717 0
-167 719 0
-167 717 0
168 -167 -709 0
-168 167 0
-168 709 0
169 -771 -166 0
-169 771 0
-169 166 0
170 -30 -726 0
-170 30 0
-170 726 0
171 -170 -5 0
-171 170 0
-171 5 0
172 -772 -169 0
-172 772 0
-172 169 0
173 -17 -698 0
-173 17 0
-173 698 0
174 -173 -773 0
-174 173 0
-174 773 0
175 -774 -172 0
-175 774 0
-175 172 0
176 -725 -24 0
-176 725 0
-176 24 0
177 -176 -775 0
-177 176 0
-177 775 0
178 -776 -175 0
-178 776 0
-178 175 0
179 -44 -703 0
-179 44 0
-179 703 0
180 -179 -699 0
-180 179 0
-180 699 0
181 -777 -178 0
-181 777 0
-181 178 0
182 -37 -764 0
-182 37 0
-182 764 0
183 -182 -778 0
-183 182 0
-183 778 0
184 -779 -181 0
-184 779 0
-184 181 0
185 -780 -28 0
-185 780 0
-185 28 0
186 -185 -38 0
-186 185 0
-186 38 0
187 -781 -184 0
-187 781 0
-187 184 0
188 -726 -699 0
-188 726 0
-188 699 0
189 -188 -782 0
-189 188 0
-189 782 0
190 -783 -187 0
-190 783 0
-190 187 0
191 -735 -9 0
-191 735 0
-191 9 0
192 -191 -741 0
-192 191 0
-192 741 0
193 -784 -190 0
-193 784 0
-193 190 0
194 -28 -711 0
-194 28 0
-194 711 0
195 -194 -719 0
-195 194 0
-195 719 0
196 -785 -193 0
-196 785 0
-196 193 0
197 -723 -775 0
-197 723 0
-197 775 0
198 -197 -699 0
-198 197 0
-198 699 0
199 -786 -196 0
-199 786 0
-199 196 0
200 -756 -775 0
-200 756 0
-200 775 0
201 -200 -29 0
-201 200 0
-201 29 0
202 -787 -199 0
-202 787 0
-202 199 0
203 -30 -717 0
-203 30 0
-203 717 0
204 -203 -788 0
-204 203 0
-204 788 0
205 -789 -202 0
-205 789 0
-205 202 0
206 -735 -4 0
-206 735 0
-206 4 0
207 -206 -12 0
-207 206 0
-207 12 0
208 -790 -205 0
-208 790 0
-208 205 0
209 -41 -34 0
-209 41 0
-209 34 0
210 -209 -42 0
-210 209 0
-210 42 0
211 -791 -208 0
-211 791 0
-211 208 0
212 -767 -698 0
-212 767 0
-212 698 0
213 -212 -728 0
-213 212 0
-213 728 0
214 -792 -211 0
-214 792 0
-214 211 0
215 -30 -721 0
-215 30 0
-215 721 0
216 -215 -737 0
-216 215 0
-216 737 0
217 -793 -214 0
-217 793 0
-217 214 0
218 -794 -726 0
-218 794 0
-218 726 0
219 -218 -29 0
-219 218 0
-219 29 0
220 -795 -217 0
-220 795 0
-220 217 0
221 -721 -21 0
-221 721 0
-221 21 0
222 -221 -723 0
-222 221 0
-222 723 0
223 -796 -220 0
-223 796 0
-223 220 0
224 -46 -775 0
-224 46 0
-224 775 0
225 -224 -718 0
-225 224 0
-225 718 0
226 -797 -223 0
-226 797 0
-226 223 0
227 -16 -9 0
-227 16 0
-227 9 0
228 -227 -719 0
-228 227 0
-228 719 0
229 -798 -226 0
-229 798 0
-229 226 0
230 -725 -27 0
-230 725 0
-230 27 0
231 -230 -751 0
-231 230 0
-231 751 0
232 -799 -229 0
-232 799 0
-232 229 0
233 -36 -13 0
-233 36 0
-233 13 0
234 -233 -709 0
-234 233 0
-234 709 0
235 -800 -232 0
-235 800 0
-235 232 0
236 -717 -15 0
-236 717 0
-236 15 0
237 -236 -782 0
-237 236 0
-237 782 0
238 -801 -235 0
-238 801 0
-238 235 0
239 -767 -2 0
-239 767 0
-239 2 0
240 -239 -802 0
-240 239 0
-240 802 0
241 -803 -238 0
-241 803 0
-241 238 0
242 -804 -31 0
-242 804 0
-242 31 0
243 -242 -17 0
-243 242 0
-243 17 0
244 -805 -241 0
-244 805 0
-244 241 0
245 -42 -728 0
-245 42 0
-245 728 0
246 -245 -806 0
-246 245 0
-246 806 0
247 -807 -244 0
-247 807 0
-247 244 0
248 -739 -1 0
-248 739 0
-248 1 0
249 -248 -40 0
-249 248 0
-249 40 0
250 -808 -247 0
-250 808 0
-250 247 0
251 -44 -743 0
-251 44 0
-251 743 0
252 -251 -47 0
-252 251 0
-252 47 0
253 -809 -250 0
-253 809 0
-253 250 0
254 -723 -6 0
-254 723 0
-254 6 0
255 -254 -36 0
-255 254 0
-255 36 0
256 -810 -253 0
-256 810 0
-256 253 0
257 -27 -775 0
-257 27 0
-257 775 0
258 -257 -741 0
-258 257 0
-258 741 0
259 -811 -256 0
-259 811 0
-259 256 0
260 -42 -4 0
-260 42 0
-260 4 0
261 -260 -39 0
-261 260 0
-261 39 0
262 -812 -259 0
-262 812 0
-262 259 0
263 -747 -15 0
-263 747 0
-263 15 0
264 -263 -719 0
-264 263 0
-264 719 0
265 -813 -262 0
-265 813 0
-265 262 0
266 -728 -767 0
-266 728 0
-266 767 0
267 -266 -29 0
-267 266 0
-267 29 0
268 -814 -265 0
-268 814 0
-268 265 0
269 -44 -27 0
-269 44 0
-269 27 0
270 -269 -40 0
-270 269 0
-270 40 0
271 -815 -268 0
-271 815 0
-271 268 0
272 -816 -16 0
-272 816 0
-272 16 0
273 -272 -778 0
-273 272 0
-273 778 0
274 -817 -271 0
-274 817 0
-274 271 0
275 -48 -746 0
-275 48 0
-275 746 0
276 -275 -25 0
-276 275 0
-276 25 0
277 -818 -274 0
-277 818 0
-277 274 0
278 -42 -23 0
-278 42 0
-278 23 0
279 -278 -741 0
-279 278 0
-279 741 0
280 -819 -277 0
-280 819 0
-280 277 0
281 -29 -767 0
-281 29 0
-281 767 0
282 -281 -36 0
-282 281 0
-282 36 0
283 -820 -280 0
-283 820 0
-283 280 0
284 -780 -703 0
-284 780 0
-284 703 0
285 -284 -760 0
-285 284 0
-285 760 0
286 -821 -283 0
-286 821 0
-286 283 0
287 -822 -721 0
-287 822 0
-287 721 0
288 -287 -773 0
-288 287 0
-288 773 0
289 -823 -286 0
-289 823 0
-289 286 0
290 -788 -40 0
-290 788 0
-290 40 0
291 -290 -782 0
-291 290 0
-291 782 0
292 -824 -289 0
-292 824 0
-292 289 0
293 -5 -802 0
-293 5 0
-293 802 0
294 -293 -751 0
-294 293 0
-294 751 0
295 -825 -292 0
-295 825 0
-295 292 0
296 -30 -1 0
-296 30 0
-296 1 0
297 -296 -47 0
-297 296 0
-297 47 0
298 -826 -295 0
-298 826 0
-298 295 0
299 -726 -717 0
-299 726 0
-299 717 0
300 -299 -24 0
-300 299 0
-300 24 0
301 -827 -298 0
-301 827 0
-301 298 0
302 -715 -699 0
-302 715 0
-302 699 0
303 -302 -773 0
-303 302 0
-303 773 0
304 -828 -301 0
-304 828 0
-304 301 0
305 -741 -750 0
-305 741 0
-305 750 0
306 -305 -14 0
-306 305 0
-306 14 0
307 -829 -304 0
-307 829 0
-307 304 0
308 -732 -9 0
-308 732 0
-308 9 0
309 -308 -741 0
-309 308 0
-309 741 0
310 -830 -307 0
-310 830 0
-310 307 0
311 -10 -7 0
-311 10 0
-311 7 0
312 -311 -29 0
-312 311 0
-312 29 0
313 -831 -310 0
-313 831 0
-313 310 0
314 -804 -24 0
-314 804 0
-314 24 0
315 -314 -40 0
-315 314 0
-315 40 0
316 -832 -313 0
-316 832 0
-316 313 0
317 -711 -746 0
-317 711 0
-317 746 0
318 -317 -39 0
-318 317 0
-318 39 0
319 -833 -316 0
-319 833 0
-319 316 0
320 -804 -721 0
-320 804 0
-320 721 0
321 -320 -703 0
-321 320 0
-321 703 0
322 -834 -319 0
-322 834 0
-322 319 0
323 -43 -746 0
-323 43 0
-323 746 0
324 -323 -8 0
-324 323 0
-324 8 0
325 -835 -322 0
-325 835 0
-325 322 0
326 -804 -731 0
-326 804 0
-326 731 0
327 -326 -6 0
-327 326 0
-327 6 0
328 -836 -325 0
-328 836 0
-328 325 0
329 -26 -750 0
-329 26 0
-329 750 0
330 -329 -719 0
-330 329 0
-330 719 0
331 -837 -328 0
-331 837 0
-331 328 0
332 -24 -21 0
-332 24 0
-332 21 0
333 -332 -732 0
-333 332 0
-333 732 0
334 -838 -331 0
-334 838 0
-334 331 0
335 -35 -26 0
-335 35 0
-335 26 0
336 -335 -802 0
-336 335 0
-336 802 0
337 -839 -334 0
-337 839 0
-337 334 0
338 -44 -26 0
-338 44 0
-338 26 0
339 -338 -12 0
-339 338 0
-339 12 0
340 -840 -337 0
-340 840 0
-340 337 0
341 -26 -707 0
-341 26 0
-341 707 0
342 -341 -37 0
-342 341 0
-342 37 0
343 -841 -340 0
-343 841 0
-343 340 0
344 -29 -782 0
-344 29 0
-344 782 0
345 -344 -47 0
-345 344 0
-345 47 0
346 -842 -343 0
-346 842 0
-346 343 0
347 -7 -5 0
-347 7 0
-347 5 0
348 -347 -773 0
-348 347 0
-348 773 0
349 -843 -346 0
-349 843 0
-349 346 0
350 -42 -34 0
-350 42 0
-350 34 0
351 -350 -17 0
-351 350 0
-351 17 0
352 -844 -349 0
-352 844 0
-352 349 0
353 -816 -737 0
-353 816 0
-353 737 0
354 -353 -14 0
-354 353 0
-354 14 0
355 -845 -352 0
-355 845 0
-355 352 0
356 -846 -29 0
-356 846 0
-356 29 0
357 -356 -719 0
-357 356 0
-357 719 0
358 -847 -355 0
-358 847 0
-358 355 0
359 -723 -16 0
-359 723 0
-359 16 0
360 -359 -14 0
-360 359 0
-360 14 0
361 -848 -358 0
-361 848 0
-361 358 0
362 -804 -728 0
-362 804 0
-362 728 0
363 -362 -775 0
-363 362 0
-363 775 0
364 -849 -361 0
-364 849 0
-364 361 0
365 -10 -2 0
-365 10 0
-365 2 0
366 -365 -804 0
-366 365 0
-366 804 0
367 -850 -364 0
-367 850 0
-367 364 0
368 -780 -24 0
-368 780 0
-368 24 0
369 -368 -746 0
-369 368 0
-369 746 0
370 -851 -367 0
-370 851 0
-370 367 0
371 -32 -794 0
-371 32 0
-371 794 0
372 -371 -46 0
-372 371 0
-372 46 0
373 -852 -370 0
-373 852 0
-373 370 0
374 -804 -853 0
-374 804 0
-374 853 0
375 -374 -775 0
-375 374 0
-375 775 0
376 -854 -373 0
-376 854 0
-376 373 0
377 -42 -16 0
-377 42 0
-377 16 0
378 -377 -4 0
-378 377 0
-378 4 0
379 -855 -376 0
-379 855 0
-379 376 0
380 -853 -707 0
-380 853 0
-380 707 0
381 -380 -794 0
-381 380 0
-381 794 0
382 -856 -379 0
-382 856 0
-382 379 0
383 -19 -15 0
-383 19 0
-383 15 0
384 -383 -49 0
-384 383 0
-384 49 0
385 -857 -382 0
-385 857 0
-385 382 0
386 -20 -9 0
-386 20 0
-386 9 0
387 -386 -782 0
-387 386 0
-387 782 0
388 -858 -385 0
-388 858 0
-388 385 0
389 -17 -11 0
-389 17 0
-389 11 0
390 -389 -36 0
-390 389 0
-390 36 0
391 -859 -388 0
-391 859 0
-391 388 0
392 -16 -767 0
-392 16 0
-392 767 0
393 -392 -715 0
-393 392 0
-393 715 0
394 -860 -391 0
-394 860 0
-394 391 0
395 -861 -739 0
-395 861 0
-395 739 0
396 -395 -802 0
-396 395 0
-396 802 0
397 -862 -394 0
-397 862 0
-397 394 0
398 -44 -12 0
-398 44 0
-398 12 0
399 -398 -40 0
-399 398 0
-399 40 0
400 -863 -397 0
-400 863 0
-400 397 0
401 -804 -18 0
-401 804 0
-401 18 0
402 -401 -8 0
-402 401 0
-402 8 0
403 -864 -400 0
-403 864 0
-403 400 0
404 -728 -4 0
-404 728 0
-404 4 0
405 -404 -33 0
-405 404 0
-405 33 0
406 -865 -403 0
-406 865 0
-406 403 0
407 -19 -1 0
-407 19 0
-407 1 0
408 -407 -17 0
-408 407 0
-408 17 0
409 -866 -406 0
-409 866 0
-409 406 0
410 -780 -30 0
-410 780 0
-410 30 0
411 -410 -806 0
-411 410 0
-411 806 0
412 -867 -409 0
-412 867 0
-412 409 0
413 -48 -32 0
-413 48 0
-413 32 0
414 -413 -19 0
-414 413 0
-414 19 0
415 -868 -412 0
-415 868 0
-415 412 0
416 -44 -1 0
-416 44 0
-416 1 0
417 -416 -47 0
-417 416 0
-417 47 0
418 -869 -415 0
-418 869 0
-418 415 0
419 -794 -721 0
-419 794 0
-419 721 0
420 -419 -44 0
-420 419 0
-420 44 0
421 -870 -418 0
-421 870 0
-421 418 0
422 -23 -775 0
-422 23 0
-422 775 0
423 -422 -802 0
-423 422 0
-423 802 0
424 -871 -421 0
-424 871 0
-424 421 0
425 -37 -794 0
-425 37 0
-425 794 0
426 -425 -709 0
-426 425 0
-426 709 0
427 -872 -424 0
-427 872 0
-427 424 0
428 -816 -8 0
-428 816 0
-428 8 0
429 -428 -35 0
-429 428 0
-429 35 0
430 -873 -427 0
-430 873 0
-430 427 0
431 -39 -24 0
-431 39 0
-431 24 0
432 -431 -5 0
-432 431 0
-432 5 0
433 -874 -430 0
-433 874 0
-433 430 0
434 -853 -21 0
-434 853 0
-434 21 0
435 -434 -36 0
-435 434 0
-435 36 0
436 -875 -433 0
-436 875 0
-436 433 0
437 -40 -26 0
-437 40 0
-437 26 0
438 -437 -719 0
-438 437 0
-438 719 0
439 -876 -436 0
-439 876 0
-439 436 0
440 -804 -778 0
-440 804 0
-440 778 0
441 -440 -806 0
-441 440 0
-441 806 0
442 -877 -439 0
-442 877 0
-442 439 0
443 -878 -822 0
-443 878 0
-443 822 0
444 -443 -11 0
-444 443 0
-444 11 0
445 -879 -442 0
-445 879 0
-445 442 0
446 -36 -1 0
-446 36 0
-446 1 0
447 -446 -25 0
-447 446 0
-447 25 0
448 -880 -445 0
-448 880 0
-448 445 0
449 -760 -726 0
-449 760 0
-449 726 0
450 -449 -49 0
-450 449 0
-450 49 0
451 -881 -448 0
-451 881 0
-451 448 0
452 -861 -21 0
-452 861 0
-452 21 0
453 -452 -9 0
-453 452 0
-453 9 0
454 -882 -451 0
-454 882 0
-454 451 0
455 -50 -806 0
-455 50 0
-455 806 0
456 -455 -741 0
-456 455 0
-456 741 0
457 -883 -454 0
-457 883 0
-457 454 0
458 -788 -31 0
-458 788 0
-458 31 0
459 -458 -706 0
-459 458 0
-459 706 0
460 -884 -457 0
-460 884 0
-460 457 0
461 -853 -23 0
-461 853 0
-461 23 0
462 -461 -43 0
-462 461 0
-462 43 0
463 -885 -460 0
-463 885 0
-463 460 0
464 -762 -15 0
-464 762 0
-464 15 0
465 -464 -802 0
-465 464 0
-465 802 0
466 -886 -463 0
-466 886 0
-466 463 0
467 -416 -33 0
-467 416 0
-467 33 0
468 -887 -466 0
-468 887 0
-468 466 0
469 -45 -29 0
-469 45 0
-469 29 0
470 -469 -20 0
-470 469 0
-470 20 0
471 -888 -468 0
-471 888 0
-471 468 0
472 -804 -764 0
-472 804 0
-472 764 0
473 -472 -31 0
-473 472 0
-473 31 0
474 -889 -471 0
-474 889 0
-474 471 0
475 -878 -726 0
-475 878 0
-475 726 0
476 -475 -29 0
-476 475 0
-476 29 0
477 -890 -474 0
-477 890 0
-477 474 0
478 -782 -707 0
-478 782 0
-478 707 0
479 -478 -47 0
-479 478 0
-479 47 0
480 -891 -477 0
-480 891 0
-480 477 0
481 -45 -728 0
-481 45 0
-481 728 0
482 -481 -715 0
-482 481 0
-482 715 0
483 -892 -480 0
-483 892 0
-483 480 0
484 -739 -32 0
-484 739 0
-484 32 0
485 -484 -756 0
-485 484 0
-485 756 0
486 -893 -483 0
-486 893 0
-486 483 0
487 -34 -31 0
-487 34 0
-487 31 0
488 -487 -713 0
-488 487 0
-488 713 0
489 -894 -486 0
-489 894 0
-489 486 0
490 -16 -10 0
-490 16 0
-490 10 0
491 -490 -31 0
-491 490 0
-491 31 0
492 -895 -489 0
-492 895 0
-492 489 0
493 -12 -3 0
-493 12 0
-493 3 0
494 -493 -782 0
-494 493 0
-494 782 0
495 -896 -492 0
-495 896 0
-495 492 0
496 -728 -2 0
-496 728 0
-496 2 0
497 -496 -718 0
-497 496 0
-497 718 0
498 -897 -495 0
-498 897 0
-498 495 0
499 -773 -16 0
-499 773 0
-499 16 0
500 -499 -806 0
-500 499 0
-500 806 0
501 -898 -498 0
-501 898 0
-501 498 0
502 -46 -2 0
-502 46 0
-502 2 0
503 -502 -846 0
-503 502 0
-503 846 0
504 -899 -501 0
-504 899 0
-504 501 0
505 -780 -750 0
-505 780 0
-505 750 0
506 -505 -775 0
-506 505 0
-506 775 0
507 -900 -504 0
-507 900 0
-507 504 0
508 -741 -700 0
-508 741 0
-508 700 0
509 -508 -14 0
-509 508 0
-509 14 0
510 -901 -507 0
-510 901 0
-510 507 0
511 -846 -28 0
-511 846 0
-511 28 0
512 -511 -33 0
-512 511 0
-512 33 0
513 -902 -510 0
-513 902 0
-513 510 0
514 -756 -711 0
-514 756 0
-514 711 0
515 -514 -700 0
-515 514 0
-515 700 0
516 -903 -513 0
-516 903 0
-516 513 0
517 -45 -8 0
-517 45 0
-517 8 0
518 -517 -741 0
-518 517 0
-518 741 0
519 -904 -516 0
-519 904 0
-519 516 0
520 -39 -743 0
-520 39 0
-520 743 0
521 -520 -709 0
-521 520 0
-521 709 0
522 -905 -519 0
-522 905 0
-522 519 0
523 -26 -21 0
-523 26 0
-523 21 0
524 -523 -816 0
-524 523 0
-524 816 0
525 -906 -522 0
-525 906 0
-525 522 0
526 -743 -764 0
-526 743 0
-526 764 0
527 -526 -31 0
-527 526 0
-527 31 0
528 -907 -525 0
-528 907 0
-528 525 0
529 -878 -34 0
-529 878 0
-529 34 0
530 -529 -737 0
-530 529 0
-530 737 0
531 -908 -528 0
-531 908 0
-531 528 0
532 -853 -1 0
-532 853 0
-532 1 0
533 -532 -2 0
-533 532 0
-533 2 0
534 -909 -531 0
-534 909 0
-534 531 0
535 -43 -41 0
-535 43 0
-535 41 0
536 -535 -16 0
-536 535 0
-536 16 0
537 -910 -534 0
-537 910 0
-537 534 0
538 -760 -2 0
-538 760 0
-538 2 0
539 -538 -12 0
-539 538 0
-539 12 0
540 -911 -537 0
-540 911 0
-540 537 0
541 -45 -37 0
-541 45 0
-541 37 0
542 -541 -40 0
-542 541 0
-542 40 0
543 -912 -540 0
-543 912 0
-543 540 0
544 -45 -750 0
-544 45 0
-544 750 0
545 -544 -737 0
-545 544 0
-545 737 0
546 -913 -543 0
-546 913 0
-546 543 0
547 -34 -32 0
-547 34 0
-547 32 0
548 -547 -44 0
-548 547 0
-548 44 0
549 -914 -546 0
-549 914 0
-549 546 0
550 -50 -804 0
-550 50 0
-550 804 0
551 -550 -741 0
-551 550 0
-551 741 0
552 -915 -549 0
-552 915 0
-552 549 0
553 -35 -19 0
-553 35 0
-553 19 0
554 -553 -732 0
-554 553 0
-554 732 0
555 -916 -552 0
-555 916 0
-555 552 0
556 -7 -707 0
-556 7 0
-556 707 0
557 -556 -3 0
-557 556 0
-557 3 0
558 -917 -555 0
-558 917 0
-558 555 0
559 -40 -18 0
-559 40 0
-559 18 0
560 -559 -6 0
-560 559 0
-560 6 0
561 -918 -558 0
-561 918 0
-561 558 0
562 -723 -7 0
-562 723 0
-562 7 0
563 -562 -40 0
-563 562 0
-563 40 0
564 -919 -561 0
-564 919 0
-564 561 0
565 -50 -794 0
-565 50 0
-565 794 0
566 -565 -718 0
-566 565 0
-566 718 0
567 -920 -564 0
-567 920 0
-567 564 0
568 -822 -28 0
-568 822 0
-568 28 0
569 -568 -715 0
-569 568 0
-569 715 0
570 -921 -567 0
-570 921 0
-570 567 0
571 -359 -715 0
-571 359 0
-571 715 0
572 -922 -570 0
-572 922 0
-572 570 0
573 -723 -21 0
-573 723 0
-573 21 0
574 -573 -6 0
-574 573 0
-574 6 0
575 -923 -572 0
-575 923 0
-575 572 0
576 -822 -5 0
-576 822 0
-576 5 0
577 -576 -22 0
-577 576 0
-577 22 0
578 -924 -575 0
-578 924 0
-578 575 0
579 -27 -723 0
-579 27 0
-579 723 0
580 -579 -12 0
-580 579 0
-580 12 0
581 -925 -578 0
-581 925 0
-581 578 0
582 -26 -721 0
-582 26 0
-582 721 0
583 -582 -711 0
-583 582 0
-583 711 0
584 -926 -581 0
-584 926 0
-584 581 0
585 -50 -703 0
-585 50 0
-585 703 0
586 -585 -711 0
-586 585 0
-586 711 0
587 -927 -584 0
-587 927 0
-587 584 0
588 -32 -28 0
-588 32 0
-588 28 0
589 -588 -711 0
-589 588 0
-589 711 0
590 -928 -587 0
-590 928 0
-590 587 0
591 -45 -794 0
-591 45 0
-591 794 0
592 -591 -11 0
-592 591 0
-592 11 0
593 -929 -590 0
-593 929 0
-593 590 0
594 -43 -26 0
-594 43 0
-594 26 0
595 -594 -732 0
-595 594 0
-595 732 0
596 -930 -593 0
-596 930 0
-596 593 0
597 -50 -700 0
-597 50 0
-597 700 0
598 -597 -732 0
-598 597 0
-598 732 0
599 -931 -596 0
-599 931 0
-599 596 0
600 -37 -24 0
-600 37 0
-600 24 0
601 -600 -33 0
-601 600 0
-601 33 0
602 -932 -599 0
-602 932 0
-602 599 0
603 -182 -804 0
-603 182 0
-603 804 0
604 -933 -602 0
-604 933 0
-604 602 0
605 -17 -699 0
-605 17 0
-605 699 0
606 -605 -741 0
-606 605 0
-606 741 0
607 -934 -604 0
-607 934 0
-607 604 0
608 -750 -746 0
-608 750 0
-608 746 0
609 -608 -731 0
-609 608 0
-609 731 0
610 -935 -607 0
-610 935 0
-610 607 0
611 -726 -719 0
-611 726 0
-611 719 0
612 -611 -741 0
-612 611 0
-612 741 0
613 -936 -610 0
-613 936 0
-613 610 0
614 -816 -726 0
-614 816 0
-614 726 0
615 -614 -17 0
-615 614 0
-615 17 0
616 -937 -613 0
-616 937 0
-616 613 0
617 -39 -726 0
-617 39 0
-617 726 0
618 -617 -3 0
-618 617 0
-618 3 0
619 -938 -616 0
-619 938 0
-619 616 0
620 -50 -861 0
-620 50 0
-620 861 0
621 -620 -775 0
-621 620 0
-621 775 0
622 -939 -619 0
-622 939 0
-622 619 0
623 -762 -26 0
-623 762 0
-623 26 0
624 -623 -46 0
-624 623 0
-624 46 0
625 -940 -622 0
-625 940 0
-625 622 0
626 -44 -30 0
-626 44 0
-626 30 0
627 -626 -33 0
-627 626 0
-627 33 0
628 -941 -625 0
-628 941 0
-628 625 0
629 -541 -700 0
-629 541 0
-629 700 0
630 -942 -628 0
-630 942 0
-630 628 0
631 -23 -802 0
-631 23 0
-631 802 0
632 -631 -36 0
-632 631 0
-632 36 0
633 -943 -630 0
-633 943 0
-633 630 0
634 -39 -37 0
-634 39 0
-634 37 0
635 -634 -741 0
-635 634 0
-635 741 0
636 -944 -633 0
-636 944 0
-636 633 0
637 -42 -1 0
-637 42 0
-637 1 0
638 -637 -775 0
-638 637 0
-638 775 0
639 -945 -636 0
-639 945 0
-639 636 0
640 -137 -5 0
-640 137 0
-640 5 0
641 -946 -639 0
-641 946 0
-641 639 0
642 -35 -726 0
-642 35 0
-642 726 0
643 -642 -14 0
-643 642 0
-643 14 0
644 -947 -641 0
-644 947 0
-644 641 0
645 -24 -711 0
-645 24 0
-645 711 0
646 -645 -731 0
-646 645 0
-646 731 0
647 -948 -644 0
-647 948 0
-647 644 0
648 -804 -4 0
-648 804 0
-648 4 0
649 -648 -731 0
-649 648 0
-649 731 0
650 -949 -647 0
-650 949 0
-650 647 0
651 -21 -746 0
-651 21 0
-651 746 0
652 -651 -14 0
-652 651 0
-652 14 0
653 -950 -650 0
-653 950 0
-653 650 0
654 -750 -706 0
-654 750 0
-654 706 0
655 -654 -47 0
-655 654 0
-655 47 0
656 -951 -653 0
-656 951 0
-656 653 0
657 -50 -756 0
-657 50 0
-657 756 0
658 -657 -718 0
-658 657 0
-658 718 0
659 -952 -656 0
-659 952 0
-659 656 0
660 -29 -726 0
-660 29 0
-660 726 0
661 -660 -718 0
-661 660 0
-661 718 0
662 -953 -659 0
-662 953 0
-662 659 0
663 -731 -16 0
-663 731 0
-663 16 0
664 -663 -778 0
-664 663 0
-664 778 0
665 -954 -662 0
-665 954 0
-665 662 0
666 -27 -24 0
-666 27 0
-666 24 0
667 -666 -15 0
-667 666 0
-667 15 0
668 -955 -665 0
-668 955 0
-668 665 0
669 -31 -9 0
-669 31 0
-669 9 0
670 -669 -751 0
-670 669 0
-670 751 0
671 -956 -668 0
-671 956 0
-671 668 0
672 -34 -717 0
-672 34 0
-672 717 0
673 -672 -10 0
-673 672 0
-673 10 0
674 -957 -671 0
-674 957 0
-674 671 0
675 -725 -13 0
-675 725 0
-675 13 0
676 -675 -25 0
-676 675 0
-676 25 0
677 -958 -674 0
-677 958 0
-677 674 0
678 -846 -4 0
-678 846 0
-678 4 0
679 -678 -40 0
-679 678 0
-679 40 0
680 -959 -677 0
-680 959 0
-680 677 0
681 -21 -728 0
-681 21 0
-681 728 0
682 -681 -725 0
-682 681 0
-682 725 0
683 -960 -680 0
-683 960 0
-683 680 0
684 -725 -853 0
-684 725 0
-684 853 0
685 -684 -38 0
-685 684 0
-685 38 0
686 -961 -683 0
-686 961 0
-686 683 0
687 -780 -32 0
-687 780 0
-687 32 0
688 -687 -725 0
-688 687 0
-688 725 0
689 -962 -686 0
-689 962 0
-689 686 0
690 -43 -30 0
-690 43 0
-690 30 0
691 -690 -718 0
-691 690 0
-691 718 0
692 -963 -689 0
-692 963 0
-692 689 0
693 -329 -747 0
-693 329 0
-693 747 0
694 -964 -692 0
-694 964 0
-694 692 0
695 -41 -2 0
-695 41 0
-695 2 0
696 -695 -715 0
-696 695 0
-696 715 0
697 -965 -694 0
-697 965 0
-697 694 0
-698 -1 0
698 1 0
-699 -3 0
699 3 0
-700 -5 0
700 5 0
-701 -54 0
701 54 0
-702 -52 0
702 52 0
-703 -8 0
703 8 0
-704 -57 0
704 57 0
-705 -60 0
705 60 0
-706 -11 0
706 11 0
-707 -2 0
707 2 0
-708 -63 0
708 63 0
-709 -14 0
709 14 0
-710 -66 0
710 66 0
-711 -16 0
711 16 0
-712 -69 0
712 69 0
-713 -17 0
713 17 0
-714 -72 0
714 72 0
-715 -20 0
715 20 0
-716 -75 0
716 75 0
-717 -21 0
717 21 0
-718 -12 0
718 12 0
-719 -22 0
719 22 0
-720 -78 0
720 78 0
-721 -23 0
721 23 0
-722 -81 0
722 81 0
-723 -24 0
723 24 0
-724 -84 0
724 84 0
-725 -28 0
725 28 0
-726 -27 0
726 27 0
-727 -87 0
727 87 0
-728 -19 0
728 19 0
-729 -90 0
729 90 0
-730 -93 0
730 93 0
-731 -31 0
731 31 0
-732 -33 0
732 33 0
-733 -96 0
733 96 0
-734 -99 0
734 99 0
-735 -35 0
735 35 0
-736 -102 0
736 102 0
-737 -36 0
737 36 0
-738 -105 0
738 105 0
-739 -37 0
739 37 0
-740 -108 0
740 108 0
-741 -25 0
741 25 0
-742 -111 0
742 111 0
-743 -34 0
743 34 0
-744 -114 0
744 114 0
-745 -117 0
745 117 0
-746 -15 0
746 15 0
-747 -39 0
747 39 0
-748 -120 0
748 120 0
-749 -123 0
749 123 0
-750 -18 0
750 18 0
-751 -38 0
751 38 0
-752 -126 0
752 126 0
-753 -129 0
753 129 0
-754 -132 0
754 132 0
-755 -135 0
755 135 0
-756 -42 0
756 42 0
-757 -138 0
757 138 0
-758 -141 0
758 141 0
-759 -144 0
759 144 0
-760 -41 0
760 41 0
-761 -147 0
761 147 0
-762 -32 0
762 32 0
-763 -150 0
763 150 0
-764 -7 0
764 7 0
-765 -153 0
765 153 0
-766 -156 0
766 156 0
-767 -10 0
767 10 0
-768 -159 0
768 159 0
-769 -162 0
769 162 0
-770 -165 0
770 165 0
-771 -168 0
771 168 0
-772 -171 0
772 171 0
-773 -40 0
773 40 0
-774 -174 0
774 174 0
-775 -13 0
775 13 0
-776 -177 0
776 177 0
-777 -180 0
777 180 0
-778 -9 0
778 9 0
-779 -183 0
779 183 0
-780 -43 0
780 43 0
-781 -186 0
781 186 0
-782 -6 0
782 6 0
-783 -189 0
783 189 0
-784 -192 0
784 192 0
-785 -195 0
785 195 0
-786 -198 0
786 198 0
-787 -201 0
787 201 0
-788 -45 0
788 45 0
-789 -204 0
789 204 0
-790 -207 0
790 207 0
-791 -210 0
791 210 0
-792 -213 0
792 213 0
-793 -216 0
793 216 0
-794 -30 0
794 30 0
-795 -219 0
795 219 0
-796 -222 0
796 222 0
-797 -225 0
797 225 0
-798 -228 0
798 228 0
-799 -231 0
799 231 0
-800 -234 0
800 234 0
-801 -237 0
801 237 0
-802 -4 0
802 4 0
-803 -240 0
803 240 0
-804 -44 0
804 44 0
-805 -243 0
805 243 0
-806 -47 0
806 47 0
-807 -246 0
807 246 0
-808 -249 0
808 249 0
-809 -252 0
809 252 0
-810 -255 0
810 255 0
-811 -258 0
811 258 0
-812 -261 0
812 261 0
-813 -264 0
813 264 0
-814 -267 0
814 267 0
-815 -270 0
815 270 0
-816 -46 0
816 46 0
-817 -273 0
817 273 0
-818 -276 0
818 276 0
-819 -279 0
819 279 0
-820 -282 0
820 282 0
-821 -285 0
821 285 0
-822 -29 0
822 29 0
-823 -288 0
823 288 0
-824 -291 0
824 291 0
-825 -294 0
825 294 0
-826 -297 0
826 297 0
-827 -300 0
827 300 0
-828 -303 0
828 303 0
-829 -306 0
829 306 0
-830 -309 0
830 309 0
-831 -312 0
831 312 0
-832 -315 0
832 315 0
-833 -318 0
833 318 0
-834 -321 0
834 321 0
-835 -324 0
835 324 0
-836 -327 0
836 327 0
-837 -330 0
837 330 0
-838 -333 0
838 333 0
-839 -336 0
839 336 0
-840 -339 0
840 339 0
-841 -342 0
841 342 0
-842 -345 0
842 345 0
-843 -348 0
843 348 0
-844 -351 0
844 351 0
-845 -354 0
845 354 0
-846 -49 0
846 49 0
-847 -357 0
847 357 0
-848 -360 0
848 360 0
-849 -363 0
849 363 0
-850 -366 0
850 366 0
-851 -369 0
851 369 0
-852 -372 0
852 372 0
-853 -26 0
853 26 0
-854 -375 0
854 375 0
-855 -378 0
855 378 0
-856 -381 0
856 381 0
-857 -384 0
857 384 0
-858 -387 0
858 387 0
-859 -390 0
859 390 0
-860 -393 0
860 393 0
-861 -48 0
861 48 0
-862 -396 0
862 396 0
-863 -399 0
863 399 0
-864 -402 0
864 402 0
-865 -405 0
865 405 0
-866 -408 0
866 408 0
-867 -411 0
867 411 0
-868 -414 0
868 414 0
-869 -417 0
869 417 0
-870 -420 0
870 420 0
-871 -423 0
871 423 0
-872 -426 0
872 426 0
-873 -429 0
873 429 0
-874 -432 0
874 432 0
-875 -435 0
875 435 0
-876 -438 0
876 438 0
-877 -441 0
877 441 0
-878 -50 0
878 50 0
-879 -444 0
879 444 0
-880 -447 0
880 447 0
-881 -450 0
881 450 0
-882 -453 0
882 453 0
-883 -456 0
883 456 0
-884 -459 0
884 459 0
-885 -462 0
885 462 0
-886 -465 0
886 465 0
-887 -467 0
887 467 0
-888 -470 0
888 470 0
-889 -473 0
889 473 0
-890 -476 0
890 476 0
-891 -479 0
891 479 0
-892 -482 0
892 482 0
-893 -485 0
893 485 0
-894 -488 0
894 488 0
-895 -491 0
895 491 0
-896 -494 0
896 494 0
-897 -497 0
897 497 0
-898 -500 0
898 500 0
-899 -503 0
899 503 0
-900 -506 0
900 506 0
-901 -509 0
901 509 0
-902 -512 0
902 512 0
-903 -515 0
903 515 0
-904 -518 0
904 518 0
-905 -521 0
905 521 0
-906 -524 0
906 524 0
-907 -527 0
907 527 0
-908 -530 0
908 530 0
-909 -533 0
909 533 0
-910 -536 0
910 536 0
-911 -539 0
911 539 0
-912 -542 0
912 542 0
-913 -545 0
913 545 0
-914 -548 0
914 548 0
-915 -551 0
915 551 0
-916 -554 0
916 554 0
-917 -557 0
917 557 0
-918 -560 0
918 560 0
-919 -563 0
919 563 0
-920 -566 0
920 566 0
-921 -569 0
921 569 0
-922 -571 0
922 571 0
-923 -574 0
923 574 0
-924 -577 0
924 577 0
-925 -580 0
925 580 0
-926 -583 0
926 583 0
-927 -586 0
927 586 0
-928 -589 0
928 589 0
-929 -592 0
929 592 0
-930 -595 0
930 595 0
-931 -598 0
931 598 0
-932 -601 0
932 601 0
-933 -603 0
933 603 0
-934 -606 0
934 606 0
-935 -609 0
935 609 0
-936 -612 0
936 612 0
-937 -615 0
937 615 0
-938 -618 0
938 618 0
-939 -621 0
939 621 0
-940 -624 0
940 624 0
-941 -627 0
941 627 0
-942 -629 0
942 629 0
-943 -632 0
943 632 0
-944 -635 0
944 635 0
-945 -638 0
945 638 0
-946 -640 0
946 640 0
-947 -643 0
947 643 0
-948 -646 0
948 646 0
-949 -649 0
949 649 0
-950 -652 0
950 652 0
-951 -655 0
951 655 0
-952 -658 0
952 658 0
-953 -661 0
953 661 0
-954 -664 0
954 664 0
-955 -667 0
955 667 0
-956 -670 0
956 670 0
-957 -673 0
957 673 0
-958 -676 0
958 676 0
-959 -679 0
959 679 0
-960 -682 0
960 682 0
-961 -685 0
961 685 0
-962 -688 0
962 688 0
-963 -691 0
963 691 0
-964 -693 0
964 693 0
-965 -696 0
965 696 0
697 0
